c File: instances/28_0.60_1.col
c
c Description: Random graph of size 28 vertices and P(0.6) of edges between any two vertices.
p col 28 378
e 1 2
e 1 3
e 1 4
e 1 5
e 1 6
e 1 7
e 1 8
e 1 9
e 1 10
e 1 11
e 1 12
e 1 13
e 1 14
e 1 15
e 1 17
e 1 18
e 1 19
e 1 21
e 1 23
e 1 24
e 1 28
e 2 3
e 2 5
e 2 6
e 2 8
e 2 10
e 2 11
e 2 16
e 2 17
e 2 18
e 2 20
e 2 21
e 2 22
e 2 25
e 2 26
e 2 27
e 2 28
e 3 4
e 3 5
e 3 6
e 3 7
e 3 8
e 3 9
e 3 12
e 3 13
e 3 14
e 3 15
e 3 16
e 3 17
e 3 18
e 3 21
e 3 22
e 3 23
e 3 26
e 3 27
e 3 28
e 4 6
e 4 7
e 4 8
e 4 9
e 4 10
e 4 11
e 4 16
e 4 17
e 4 18
e 4 19
e 4 21
e 4 24
e 4 26
e 4 27
e 4 28
e 5 8
e 5 9
e 5 10
e 5 11
e 5 12
e 5 13
e 5 14
e 5 15
e 5 16
e 5 17
e 5 18
e 5 19
e 5 20
e 5 21
e 5 23
e 5 24
e 5 25
e 5 26
e 5 27
e 5 28
e 6 7
e 6 8
e 6 9
e 6 10
e 6 11
e 6 12
e 6 13
e 6 15
e 6 18
e 6 22
e 6 24
e 6 26
e 6 28
e 7 8
e 7 9
e 7 11
e 7 12
e 7 14
e 7 15
e 7 19
e 7 20
e 7 22
e 7 23
e 7 24
e 7 25
e 7 26
e 7 27
e 8 10
e 8 12
e 8 14
e 8 15
e 8 16
e 8 17
e 8 18
e 8 19
e 8 20
e 8 21
e 8 22
e 8 23
e 8 24
e 8 25
e 8 28
e 9 11
e 9 13
e 9 14
e 9 15
e 9 17
e 9 18
e 9 19
e 9 20
e 9 21
e 9 22
e 9 23
e 9 24
e 9 26
e 9 27
e 10 11
e 10 12
e 10 13
e 10 14
e 10 15
e 10 17
e 10 18
e 10 19
e 10 21
e 10 23
e 11 12
e 11 15
e 11 16
e 11 18
e 11 19
e 11 21
e 11 22
e 11 24
e 12 13
e 12 15
e 12 17
e 12 20
e 12 21
e 12 22
e 12 23
e 12 27
e 12 28
e 13 14
e 13 15
e 13 20
e 13 21
e 13 22
e 13 23
e 13 24
e 13 27
e 14 17
e 14 19
e 14 25
e 14 26
e 14 27
e 14 28
e 15 16
e 15 18
e 15 19
e 15 20
e 15 21
e 15 22
e 15 24
e 15 26
e 15 27
e 15 28
e 16 17
e 16 22
e 16 23
e 16 24
e 16 25
e 16 26
e 16 27
e 17 18
e 17 19
e 17 25
e 17 26
e 18 22
e 18 23
e 18 24
e 18 25
e 18 28
e 19 24
e 19 25
e 19 26
e 19 27
e 20 25
e 20 26
e 20 27
e 20 28
e 21 22
e 21 23
e 21 24
e 21 25
e 21 26
e 22 23
e 22 25
e 22 28
e 23 24
e 23 27
e 24 26
e 24 28
e 25 26
e 25 27
e 25 28